(declare-fun var0 () String)
(assert (str.in.re var0 (re.++ (re.+ (re.+ (str.to.re "D"))) (re.++ (re.* (re.union (str.to.re "BBB") (str.to.re "C"))) (re.++ (re.* (re.* (str.to.re "A"))) (re.++ (re.union (re.union (str.to.re "xxx") (str.to.re "y")) (re.* (str.to.re "zz"))) (re.++ (re.union (re.+ (str.to.re "uu")) (re.union (str.to.re "v") (str.to.re "www"))) (re.++ (re.+ (re.* (str.to.re "ttt"))) (re.++ (re.+ (re.union (str.to.re "rrr") (str.to.re "ss"))) (re.++ (re.+ (re.+ (str.to.re "qqq"))) (re.++ (re.union (re.* (str.to.re "n")) (re.union (str.to.re "ooo") (str.to.re "pp"))) (re.++ (re.* (re.* (str.to.re "mmm"))) (re.++ (re.+ (re.+ (str.to.re "lll"))) (re.++ (re.union (re.union (str.to.re "iii") (str.to.re "j")) (re.* (str.to.re "kk"))) (re.++ (re.+ (re.* (str.to.re "hh"))) (re.++ (re.* (re.* (str.to.re "gg"))) (re.++ (re.* (re.* (str.to.re "f"))) (re.++ (re.union (re.+ (str.to.re "dd")) (re.+ (str.to.re "e"))) (re.++ (re.* (re.* (str.to.re "ccc"))) (re.++ (re.union (re.* (str.to.re "aaa")) (re.+ (str.to.re "bbb"))) (re.++ (re.* (re.union (str.to.re "888") (str.to.re "99"))) (re.++ (re.union (re.union (str.to.re "4") (str.to.re "55")) (re.union (str.to.re "666") (str.to.re "77"))) (re.union (re.union (str.to.re "0") (str.to.re "1")) (re.union (str.to.re "22") (str.to.re "333")))))))))))))))))))))))))
(assert (not (str.in.re var0 (re.++ (re.* (re.union (str.to.re "zzz") (str.to.re "AA"))) (re.++ (re.+ (re.+ (str.to.re "yy"))) (re.++ (re.union (re.+ (str.to.re "ww")) (re.+ (str.to.re "xx"))) (re.++ (re.union (re.* (str.to.re "t")) (re.union (str.to.re "uu") (str.to.re "v"))) (re.++ (re.union (re.* (str.to.re "qq")) (re.union (str.to.re "r") (str.to.re "s"))) (re.++ (re.* (re.+ (str.to.re "p"))) (re.++ (re.* (re.* (str.to.re "o"))) (re.++ (re.union (re.* (str.to.re "m")) (re.+ (str.to.re "nn"))) (re.++ (re.* (re.+ (str.to.re "lll"))) (re.++ (re.+ (re.* (str.to.re "k"))) (re.++ (re.* (re.union (str.to.re "ii") (str.to.re "j"))) (re.++ (re.* (re.union (str.to.re "gg") (str.to.re "hh"))) (re.++ (re.union (re.+ (str.to.re "eee")) (re.+ (str.to.re "f"))) (re.++ (re.+ (re.* (str.to.re "d"))) (re.++ (re.union (re.* (str.to.re "bbb")) (re.+ (str.to.re "ccc"))) (re.++ (re.* (re.+ (str.to.re "a"))) (re.++ (re.union (re.* (str.to.re "7")) (re.union (str.to.re "8") (str.to.re "99"))) (re.++ (re.* (re.* (str.to.re "666"))) (re.++ (re.* (re.union (str.to.re "4") (str.to.re "555"))) (re.++ (re.union (re.* (str.to.re "11")) (re.union (str.to.re "22") (str.to.re "33"))) (re.* (re.* (str.to.re "000"))))))))))))))))))))))))))
(check-sat)